problem_generation/data/GISP/train/er_n=61_m=1077_p=0.60_SET2_setparam=100.00_alpha=0.50_160.lp
maximize
OBJ:100x0 + 100x1 + 100x2 + 100x3 + 100x4 + 100x5 + 100x6 + 100x7 + 100x8 + 100x9 + 100x10 + 100x11 + 100x12 + 100x13 + 100x14 + 100x15 + 100x16 + 100x17 + 100x18 + 100x19 + 100x20 + 100x21 + 100x22 + 100x23 + 100x24 + 100x25 + 100x26 + 100x27 + 100x28 + 100x29 + 100x30 + 100x31 + 100x32 + 100x33 + 100x34 + 100x35 + 100x36 + 100x37 + 100x38 + 100x39 + 100x40 + 100x41 + 100x42 + 100x43 + 100x44 + 100x45 + 100x46 + 100x47 + 100x48 + 100x49 + 100x50 + 100x51 + 100x52 + 100x53 + 100x54 + 100x55 + 100x56 + 100x57 + 100x58 + 100x59 + 100x60 - y55_57 - y17_58 - y40_41 - y21_37 - y40_50 - y6_57 - y29_59 - y21_55 - y10_27 - y33_38 - y33_47 - y25_43 - y33_56 - y44_56 - y3_15 - y2_59 - y14_24 - y47_48 - y47_57 - y7_30 - y9_49 - y21_32 - y29_45 - y10_40 - y2_36 - y10_49 - y3_10 - y2_54 - y32_55 - y43_55 - y14_28 - y13_60 - y35_60 - y5_46 - y6_38 - y48_53 - y21_36 - y10_17 - y10_26 - y2_22 - y10_35 - y2_31 - y25_33 - y10_44 - y2_49 - y3_14 - y22_27 - y24_46 - y43_59 - y13_55 - y24_55 - y16_51 - y7_11 - y36_56 - y9_39 - y47_56 - y6_33 - y29_35 - y21_31 - y40_44 - y10_21 - y39_57 - y10_30 - y10_39 - y23_58 - y13_32 - y24_32 - y51_58 - y13_41 - y3_18 - y14_18 - y16_37 - y35_59 - y17_20 - y5_36 - y47_51 - y6_19 - y27_60 - y6_46 - y31_48 - y2_21 - y20_57 - y12_53 - y13_27 - y32_40 - y1_43 - y32_58 - y16_41 - y43_58 - y1_52 - y16_50 - y9_20 - y5_31 - y17_33 - y5_40 - y28_42 - y6_14 - y42_44 - y27_55 - y21_30 - y10_11 - y39_47 - y39_56 - y12_39 - y23_39 - y2_16 - y23_48 - y13_22 - y4_53 - y13_31 - y16_54 - y5_17 - y5_26 - y9_24 - y49_60 - y5_44 - y6_9 - y27_41 - y6_18 - y30_55 - y39_51 - y31_47 - y12_43 - y23_43 - y20_56 - y31_56 - y23_52 - y24_26 - y4_57 - y16_22 - y32_39 - y24_44 - y35_44 - y16_40 - y1_51 - y30_41 - y42_43 - y50_56 - y8_50 - y0_46 - y8_59 - y20_24 - y0_55 - y31_33 - y12_38 - y4_34 - y12_56 - y4_52 - y46_54 - y5_25 - y38_59 - y27_40 - y19_36 - y27_49 - y0_32 - y0_41 - y11_41 - y30_54 - y42_56 - y0_59 - y11_59 - y12_24 - y23_24 - y31_37 - y52_60 - y12_42 - y13_16 - y1_23 - y16_21 - y1_32 - y3_51 - y37_53 - y16_30 - y3_60 - y14_60 - y15_34 - y46_49 - y26_43 - y46_58 - y15_52 - y18_48 - y18_57 - y8_22 - y19_22 - y30_31 - y8_40 - y19_49 - y0_54 - y52_55 - y31_32 - y23_28 - y4_24 - y12_37 - y23_37 - y1_9 - y34_43 - y37_39 - y3_46 - y14_46 - y22_59 - y14_55 - y37_57 - y26_29 - y7_34 - y18_34 - y38_49 - y7_43 - y26_56 - y0_4 - y0_13 - y8_26 - y19_26 - y29_58 - y8_44 - y41_50 - y44_46 - y52_59 - y4_19 - y44_55 - y2_58 - y45_47 - y3_59 - y26_42 - y15_51 - y7_47 - y18_47 - y7_56 - y8_21 - y19_21 - y0_17 - y0_26 - y6_60 - y0_35 - y11_35 - y41_45 - y33_41 - y25_37 - y33_50 - y10_57 - y25_55 - y14_27 - y37_38 - y34_51 - y45_51 - y37_47 - y22_58 - y14_54 - y15_19 - y37_56 - y7_15 - y26_28 - y47_60 - y29_39 - y8_16 - y0_12 - y40_48 - y6_55 - y11_30 - y10_43 - y41_58 - y2_39 - y25_41 - y10_52 - y22_26 - y3_22 - y34_37 - y14_31 - y22_44 - y37_42 - y7_10 - y47_55 - y17_51 - y17_60 - y28_60 - y8_11 - y0_7 - y40_43 - y21_39 - y0_16 - y6_50 - y6_59 - y21_57 - y10_20 - y2_25 - y25_27 - y2_34 - y10_47 - y33_49 - y2_43 - y51_57 - y25_54 - y14_17 - y32_53 - y3_26 - y14_26 - y24_58 - y36_41 - y36_50 - y47_50 - y36_59 - y47_59 - y17_55 - y28_55 - y21_25 - y0_2 - y6_36 - y29_38 - y48_51 - y6_45 - y40_56 - y2_20 - y54_58 - y25_31 - y10_51 - y32_48 - y22_25 - y2_56 - y14_21 - y43_57 - y35_53 - y17_32 - y36_54 - y17_50 - y28_50 - y28_59 - y6_22 - y9_55 - y29_33 - y21_29 - y21_38 - y29_51 - y40_51 - y21_47 - y10_19 - y2_15 - y2_24 - y25_26 - y10_37 - y31_60 - y32_43 - y3_16 - y32_52 - y43_52 - y16_53 - y5_34 - y28_36 - y36_49 - y17_45 - y6_8 - y47_58 - y5_52 - y6_17 - y6_26 - y6_35 - y2_10 - y2_19 - y20_55 - y10_32 - y23_60 - y4_56 - y3_11 - y51_60 - y1_41 - y24_43 - y43_56 - y35_52 - y17_22 - y9_18 - y17_40 - y28_40 - y28_49 - y5_56 - y6_21 - y58_59 - y42_51 - y21_28 - y6_39 - y8_58 - y19_58 - y42_60 - y20_41 - y31_59 - y12_55 - y32_42 - y35_47 - y16_43 - y5_15 - y36_39 - y9_22 - y38_58 - y28_35 - y5_42 - y6_7 - y28_44 - y6_25 - y27_57 - y19_53 - y42_55 - y10_13 - y12_32 - y39_49 - y20_45 - y31_45 - y39_58 - y54_56 - y23_59 - y13_24 - y1_22 - y32_46 - y43_46 - y13_42 - y16_47 - y17_21 - y38_53 - y5_28 - y6_11 - y6_20 - y8_39 - y19_39 - y27_52 - y30_39 - y8_48 - y30_48 - y42_50 - y8_57 - y20_22 - y11_53 - y20_31 - y12_27 - y23_27 - y2_4 - y31_49 - y1_8 - y12_54 - y1_17 - y13_19 - y23_54 - y45_60 - y13_37 - y35_37 - y5_14 - y9_12 - y38_48 - y5_32 - y18_51 - y27_29 - y0_30 - y27_56 - y30_52 - y0_48 - y12_13 - y20_26 - y31_35 - y4_18 - y20_44 - y23_40 - y13_14 - y34_55 - y26_41 - y15_50 - y26_50 - y38_52 - y15_59 - y7_55 - y19_20 - y19_29 - y11_34 - y30_47 - y30_56 - y0_52 - y11_52 - y20_30 - y12_26 - y23_26 - y31_39 - y44_58 - y12_35 - y23_35 - y4_31 - y23_44 - y22_48 - y3_53 - y26_36 - y7_32 - y15_45 - y26_45 - y26_54 - y7_50 - y8_15 - y0_11 - y18_59 - y8_24 - y19_24 - y19_33 - y0_29 - y19_51 - y0_47 - y20_25 - y4_8 - y52_57 - y4_17 - y33_53 - y12_30 - y25_49 - y4_26 - y25_58 - y4_35 - y1_11 - y53_58 - y34_54 - y3_57 - y14_57 - y15_22 - y15_40 - y38_42 - y18_36 - y15_49 - y7_45 - y8_10 - y27_32 - y0_15 - y19_28 - y8_37 - y11_33 - y0_42 - y11_42 - y12_16 - y41_52 - y25_44 - y3_43 - y15_17 - y26_35 - y26_44 - y8_23 - y48_59 - y6_53 - y29_55 - y11_28 - y21_60 - y33_34 - y41_47 - y4_7 - y41_56 - y2_46 - y22_33 - y3_29 - y3_38 - y14_38 - y3_47 - y7_8
 Subject to
C1: x0+x1 <=1 
C2: x0+x2-y0_2 <=1 
C3: x0+x3 <=1 
C4: x0+x4-y0_4 <=1 
C5: x0+x6 <=1 
C6: x0+x7-y0_7 <=1 
C7: x0+x10 <=1 
C8: x0+x11-y0_11 <=1 
C9: x0+x12-y0_12 <=1 
C10: x0+x13-y0_13 <=1 
C11: x0+x14 <=1 
C12: x0+x15-y0_15 <=1 
C13: x0+x16-y0_16 <=1 
C14: x0+x17-y0_17 <=1 
C15: x0+x23 <=1 
C16: x0+x26-y0_26 <=1 
C17: x0+x29-y0_29 <=1 
C18: x0+x30-y0_30 <=1 
C19: x0+x31 <=1 
C20: x0+x32-y0_32 <=1 
C21: x0+x34 <=1 
C22: x0+x35-y0_35 <=1 
C23: x0+x36 <=1 
C24: x0+x38 <=1 
C25: x0+x41-y0_41 <=1 
C26: x0+x42-y0_42 <=1 
C27: x0+x43 <=1 
C28: x0+x45 <=1 
C29: x0+x46-y0_46 <=1 
C30: x0+x47-y0_47 <=1 
C31: x0+x48-y0_48 <=1 
C32: x0+x49 <=1 
C33: x0+x51 <=1 
C34: x0+x52-y0_52 <=1 
C35: x0+x54-y0_54 <=1 
C36: x0+x55-y0_55 <=1 
C37: x0+x57 <=1 
C38: x0+x58 <=1 
C39: x0+x59-y0_59 <=1 
C40: x1+x3 <=1 
C41: x1+x4 <=1 
C42: x1+x6 <=1 
C43: x1+x7 <=1 
C44: x1+x8-y1_8 <=1 
C45: x1+x9-y1_9 <=1 
C46: x1+x10 <=1 
C47: x1+x11-y1_11 <=1 
C48: x1+x13 <=1 
C49: x1+x14 <=1 
C50: x1+x15 <=1 
C51: x1+x17-y1_17 <=1 
C52: x1+x19 <=1 
C53: x1+x21 <=1 
C54: x1+x22-y1_22 <=1 
C55: x1+x23-y1_23 <=1 
C56: x1+x25 <=1 
C57: x1+x30 <=1 
C58: x1+x31 <=1 
C59: x1+x32-y1_32 <=1 
C60: x1+x34 <=1 
C61: x1+x41-y1_41 <=1 
C62: x1+x42 <=1 
C63: x1+x43-y1_43 <=1 
C64: x1+x44 <=1 
C65: x1+x45 <=1 
C66: x1+x46 <=1 
C67: x1+x47 <=1 
C68: x1+x48 <=1 
C69: x1+x50 <=1 
C70: x1+x51-y1_51 <=1 
C71: x1+x52-y1_52 <=1 
C72: x1+x54 <=1 
C73: x1+x55 <=1 
C74: x1+x56 <=1 
C75: x1+x58 <=1 
C76: x1+x60 <=1 
C77: x2+x3 <=1 
C78: x2+x4-y2_4 <=1 
C79: x2+x8 <=1 
C80: x2+x10-y2_10 <=1 
C81: x2+x11 <=1 
C82: x2+x15-y2_15 <=1 
C83: x2+x16-y2_16 <=1 
C84: x2+x18 <=1 
C85: x2+x19-y2_19 <=1 
C86: x2+x20-y2_20 <=1 
C87: x2+x21-y2_21 <=1 
C88: x2+x22-y2_22 <=1 
C89: x2+x23 <=1 
C90: x2+x24-y2_24 <=1 
C91: x2+x25-y2_25 <=1 
C92: x2+x26 <=1 
C93: x2+x30 <=1 
C94: x2+x31-y2_31 <=1 
C95: x2+x34-y2_34 <=1 
C96: x2+x35 <=1 
C97: x2+x36-y2_36 <=1 
C98: x2+x38 <=1 
C99: x2+x39-y2_39 <=1 
C100: x2+x42 <=1 
C101: x2+x43-y2_43 <=1 
C102: x2+x46-y2_46 <=1 
C103: x2+x48 <=1 
C104: x2+x49-y2_49 <=1 
C105: x2+x50 <=1 
C106: x2+x51 <=1 
C107: x2+x54-y2_54 <=1 
C108: x2+x56-y2_56 <=1 
C109: x2+x58-y2_58 <=1 
C110: x2+x59-y2_59 <=1 
C111: x3+x6 <=1 
C112: x3+x7 <=1 
C113: x3+x9 <=1 
C114: x3+x10-y3_10 <=1 
C115: x3+x11-y3_11 <=1 
C116: x3+x12 <=1 
C117: x3+x14-y3_14 <=1 
C118: x3+x15-y3_15 <=1 
C119: x3+x16-y3_16 <=1 
C120: x3+x18-y3_18 <=1 
C121: x3+x20 <=1 
C122: x3+x22-y3_22 <=1 
C123: x3+x26-y3_26 <=1 
C124: x3+x27 <=1 
C125: x3+x29-y3_29 <=1 
C126: x3+x31 <=1 
C127: x3+x33 <=1 
C128: x3+x35 <=1 
C129: x3+x36 <=1 
C130: x3+x37 <=1 
C131: x3+x38-y3_38 <=1 
C132: x3+x39 <=1 
C133: x3+x43-y3_43 <=1 
C134: x3+x45 <=1 
C135: x3+x46-y3_46 <=1 
C136: x3+x47-y3_47 <=1 
C137: x3+x48 <=1 
C138: x3+x50 <=1 
C139: x3+x51-y3_51 <=1 
C140: x3+x52 <=1 
C141: x3+x53-y3_53 <=1 
C142: x3+x54 <=1 
C143: x3+x55 <=1 
C144: x3+x56 <=1 
C145: x3+x57-y3_57 <=1 
C146: x3+x59-y3_59 <=1 
C147: x3+x60-y3_60 <=1 
C148: x4+x7-y4_7 <=1 
C149: x4+x8-y4_8 <=1 
C150: x4+x9 <=1 
C151: x4+x17-y4_17 <=1 
C152: x4+x18-y4_18 <=1 
C153: x4+x19-y4_19 <=1 
C154: x4+x21 <=1 
C155: x4+x24-y4_24 <=1 
C156: x4+x26-y4_26 <=1 
C157: x4+x27 <=1 
C158: x4+x29 <=1 
C159: x4+x30 <=1 
C160: x4+x31-y4_31 <=1 
C161: x4+x32 <=1 
C162: x4+x34-y4_34 <=1 
C163: x4+x35-y4_35 <=1 
C164: x4+x37 <=1 
C165: x4+x38 <=1 
C166: x4+x41 <=1 
C167: x4+x42 <=1 
C168: x4+x44 <=1 
C169: x4+x50 <=1 
C170: x4+x52-y4_52 <=1 
C171: x4+x53-y4_53 <=1 
C172: x4+x55 <=1 
C173: x4+x56-y4_56 <=1 
C174: x4+x57-y4_57 <=1 
C175: x5+x7 <=1 
C176: x5+x13 <=1 
C177: x5+x14-y5_14 <=1 
C178: x5+x15-y5_15 <=1 
C179: x5+x16 <=1 
C180: x5+x17-y5_17 <=1 
C181: x5+x19 <=1 
C182: x5+x25-y5_25 <=1 
C183: x5+x26-y5_26 <=1 
C184: x5+x28-y5_28 <=1 
C185: x5+x31-y5_31 <=1 
C186: x5+x32-y5_32 <=1 
C187: x5+x33 <=1 
C188: x5+x34-y5_34 <=1 
C189: x5+x36-y5_36 <=1 
C190: x5+x40-y5_40 <=1 
C191: x5+x41 <=1 
C192: x5+x42-y5_42 <=1 
C193: x5+x44-y5_44 <=1 
C194: x5+x45 <=1 
C195: x5+x46-y5_46 <=1 
C196: x5+x47 <=1 
C197: x5+x52-y5_52 <=1 
C198: x5+x54 <=1 
C199: x5+x55 <=1 
C200: x5+x56-y5_56 <=1 
C201: x5+x59 <=1 
C202: x5+x60 <=1 
C203: x6+x7-y6_7 <=1 
C204: x6+x8-y6_8 <=1 
C205: x6+x9-y6_9 <=1 
C206: x6+x11-y6_11 <=1 
C207: x6+x14-y6_14 <=1 
C208: x6+x17-y6_17 <=1 
C209: x6+x18-y6_18 <=1 
C210: x6+x19-y6_19 <=1 
C211: x6+x20-y6_20 <=1 
C212: x6+x21-y6_21 <=1 
C213: x6+x22-y6_22 <=1 
C214: x6+x24 <=1 
C215: x6+x25-y6_25 <=1 
C216: x6+x26-y6_26 <=1 
C217: x6+x28 <=1 
C218: x6+x29 <=1 
C219: x6+x31 <=1 
C220: x6+x33-y6_33 <=1 
C221: x6+x34 <=1 
C222: x6+x35-y6_35 <=1 
C223: x6+x36-y6_36 <=1 
C224: x6+x38-y6_38 <=1 
C225: x6+x39-y6_39 <=1 
C226: x6+x40 <=1 
C227: x6+x41 <=1 
C228: x6+x44 <=1 
C229: x6+x45-y6_45 <=1 
C230: x6+x46-y6_46 <=1 
C231: x6+x50-y6_50 <=1 
C232: x6+x52 <=1 
C233: x6+x53-y6_53 <=1 
C234: x6+x55-y6_55 <=1 
C235: x6+x57-y6_57 <=1 
C236: x6+x58 <=1 
C237: x6+x59-y6_59 <=1 
C238: x6+x60-y6_60 <=1 
C239: x7+x8-y7_8 <=1 
C240: x7+x10-y7_10 <=1 
C241: x7+x11-y7_11 <=1 
C242: x7+x15-y7_15 <=1 
C243: x7+x18 <=1 
C244: x7+x19 <=1 
C245: x7+x20 <=1 
C246: x7+x24 <=1 
C247: x7+x25 <=1 
C248: x7+x27 <=1 
C249: x7+x29 <=1 
C250: x7+x30-y7_30 <=1 
C251: x7+x31 <=1 
C252: x7+x32-y7_32 <=1 
C253: x7+x34-y7_34 <=1 
C254: x7+x35 <=1 
C255: x7+x37 <=1 
C256: x7+x38 <=1 
C257: x7+x40 <=1 
C258: x7+x43-y7_43 <=1 
C259: x7+x44 <=1 
C260: x7+x45-y7_45 <=1 
C261: x7+x47-y7_47 <=1 
C262: x7+x50-y7_50 <=1 
C263: x7+x51 <=1 
C264: x7+x52 <=1 
C265: x7+x55-y7_55 <=1 
C266: x7+x56-y7_56 <=1 
C267: x7+x60 <=1 
C268: x8+x10-y8_10 <=1 
C269: x8+x11-y8_11 <=1 
C270: x8+x13 <=1 
C271: x8+x15-y8_15 <=1 
C272: x8+x16-y8_16 <=1 
C273: x8+x21-y8_21 <=1 
C274: x8+x22-y8_22 <=1 
C275: x8+x23-y8_23 <=1 
C276: x8+x24-y8_24 <=1 
C277: x8+x25 <=1 
C278: x8+x26-y8_26 <=1 
C279: x8+x27 <=1 
C280: x8+x29 <=1 
C281: x8+x31 <=1 
C282: x8+x32 <=1 
C283: x8+x35 <=1 
C284: x8+x37-y8_37 <=1 
C285: x8+x39-y8_39 <=1 
C286: x8+x40-y8_40 <=1 
C287: x8+x44-y8_44 <=1 
C288: x8+x46 <=1 
C289: x8+x47 <=1 
C290: x8+x48-y8_48 <=1 
C291: x8+x50-y8_50 <=1 
C292: x8+x53 <=1 
C293: x8+x54 <=1 
C294: x8+x55 <=1 
C295: x8+x57-y8_57 <=1 
C296: x8+x58-y8_58 <=1 
C297: x8+x59-y8_59 <=1 
C298: x8+x60 <=1 
C299: x9+x12-y9_12 <=1 
C300: x9+x14 <=1 
C301: x9+x16 <=1 
C302: x9+x18-y9_18 <=1 
C303: x9+x20-y9_20 <=1 
C304: x9+x22-y9_22 <=1 
C305: x9+x23 <=1 
C306: x9+x24-y9_24 <=1 
C307: x9+x25 <=1 
C308: x9+x26 <=1 
C309: x9+x29 <=1 
C310: x9+x31 <=1 
C311: x9+x32 <=1 
C312: x9+x33 <=1 
C313: x9+x34 <=1 
C314: x9+x38 <=1 
C315: x9+x39-y9_39 <=1 
C316: x9+x41 <=1 
C317: x9+x44 <=1 
C318: x9+x45 <=1 
C319: x9+x47 <=1 
C320: x9+x48 <=1 
C321: x9+x49-y9_49 <=1 
C322: x9+x50 <=1 
C323: x9+x52 <=1 
C324: x9+x53 <=1 
C325: x9+x54 <=1 
C326: x9+x55-y9_55 <=1 
C327: x9+x56 <=1 
C328: x9+x57 <=1 
C329: x9+x59 <=1 
C330: x10+x11-y10_11 <=1 
C331: x10+x13-y10_13 <=1 
C332: x10+x14 <=1 
C333: x10+x16 <=1 
C334: x10+x17-y10_17 <=1 
C335: x10+x18 <=1 
C336: x10+x19-y10_19 <=1 
C337: x10+x20-y10_20 <=1 
C338: x10+x21-y10_21 <=1 
C339: x10+x22 <=1 
C340: x10+x23 <=1 
C341: x10+x26-y10_26 <=1 
C342: x10+x27-y10_27 <=1 
C343: x10+x29 <=1 
C344: x10+x30-y10_30 <=1 
C345: x10+x31 <=1 
C346: x10+x32-y10_32 <=1 
C347: x10+x33 <=1 
C348: x10+x34 <=1 
C349: x10+x35-y10_35 <=1 
C350: x10+x37-y10_37 <=1 
C351: x10+x39-y10_39 <=1 
C352: x10+x40-y10_40 <=1 
C353: x10+x42 <=1 
C354: x10+x43-y10_43 <=1 
C355: x10+x44-y10_44 <=1 
C356: x10+x45 <=1 
C357: x10+x47-y10_47 <=1 
C358: x10+x48 <=1 
C359: x10+x49-y10_49 <=1 
C360: x10+x51-y10_51 <=1 
C361: x10+x52-y10_52 <=1 
C362: x10+x55 <=1 
C363: x10+x57-y10_57 <=1 
C364: x11+x12 <=1 
C365: x11+x13 <=1 
C366: x11+x18 <=1 
C367: x11+x20 <=1 
C368: x11+x22 <=1 
C369: x11+x24 <=1 
C370: x11+x28-y11_28 <=1 
C371: x11+x29 <=1 
C372: x11+x30-y11_30 <=1 
C373: x11+x33-y11_33 <=1 
C374: x11+x34-y11_34 <=1 
C375: x11+x35-y11_35 <=1 
C376: x11+x37 <=1 
C377: x11+x38 <=1 
C378: x11+x39 <=1 
C379: x11+x41-y11_41 <=1 
C380: x11+x42-y11_42 <=1 
C381: x11+x44 <=1 
C382: x11+x45 <=1 
C383: x11+x46 <=1 
C384: x11+x48 <=1 
C385: x11+x49 <=1 
C386: x11+x50 <=1 
C387: x11+x51 <=1 
C388: x11+x52-y11_52 <=1 
C389: x11+x53-y11_53 <=1 
C390: x11+x56 <=1 
C391: x11+x58 <=1 
C392: x11+x59-y11_59 <=1 
C393: x12+x13-y12_13 <=1 
C394: x12+x15 <=1 
C395: x12+x16-y12_16 <=1 
C396: x12+x18 <=1 
C397: x12+x23 <=1 
C398: x12+x24-y12_24 <=1 
C399: x12+x26-y12_26 <=1 
C400: x12+x27-y12_27 <=1 
C401: x12+x28 <=1 
C402: x12+x29 <=1 
C403: x12+x30-y12_30 <=1 
C404: x12+x32-y12_32 <=1 
C405: x12+x34 <=1 
C406: x12+x35-y12_35 <=1 
C407: x12+x36 <=1 
C408: x12+x37-y12_37 <=1 
C409: x12+x38-y12_38 <=1 
C410: x12+x39-y12_39 <=1 
C411: x12+x40 <=1 
C412: x12+x41 <=1 
C413: x12+x42-y12_42 <=1 
C414: x12+x43-y12_43 <=1 
C415: x12+x45 <=1 
C416: x12+x46 <=1 
C417: x12+x50 <=1 
C418: x12+x51 <=1 
C419: x12+x53-y12_53 <=1 
C420: x12+x54-y12_54 <=1 
C421: x12+x55-y12_55 <=1 
C422: x12+x56-y12_56 <=1 
C423: x12+x59 <=1 
C424: x13+x14-y13_14 <=1 
C425: x13+x16-y13_16 <=1 
C426: x13+x18 <=1 
C427: x13+x19-y13_19 <=1 
C428: x13+x22-y13_22 <=1 
C429: x13+x24-y13_24 <=1 
C430: x13+x27-y13_27 <=1 
C431: x13+x28 <=1 
C432: x13+x31-y13_31 <=1 
C433: x13+x32-y13_32 <=1 
C434: x13+x33 <=1 
C435: x13+x34 <=1 
C436: x13+x37-y13_37 <=1 
C437: x13+x38 <=1 
C438: x13+x41-y13_41 <=1 
C439: x13+x42-y13_42 <=1 
C440: x13+x43 <=1 
C441: x13+x46 <=1 
C442: x13+x48 <=1 
C443: x13+x49 <=1 
C444: x13+x50 <=1 
C445: x13+x53 <=1 
C446: x13+x55-y13_55 <=1 
C447: x13+x56 <=1 
C448: x13+x57 <=1 
C449: x13+x59 <=1 
C450: x13+x60-y13_60 <=1 
C451: x14+x15 <=1 
C452: x14+x16 <=1 
C453: x14+x17-y14_17 <=1 
C454: x14+x18-y14_18 <=1 
C455: x14+x21-y14_21 <=1 
C456: x14+x24-y14_24 <=1 
C457: x14+x25 <=1 
C458: x14+x26-y14_26 <=1 
C459: x14+x27-y14_27 <=1 
C460: x14+x28-y14_28 <=1 
C461: x14+x31-y14_31 <=1 
C462: x14+x33 <=1 
C463: x14+x36 <=1 
C464: x14+x38-y14_38 <=1 
C465: x14+x39 <=1 
C466: x14+x40 <=1 
C467: x14+x41 <=1 
C468: x14+x45 <=1 
C469: x14+x46-y14_46 <=1 
C470: x14+x50 <=1 
C471: x14+x52 <=1 
C472: x14+x54-y14_54 <=1 
C473: x14+x55-y14_55 <=1 
C474: x14+x57-y14_57 <=1 
C475: x14+x58 <=1 
C476: x14+x60-y14_60 <=1 
C477: x15+x17-y15_17 <=1 
C478: x15+x19-y15_19 <=1 
C479: x15+x20 <=1 
C480: x15+x21 <=1 
C481: x15+x22-y15_22 <=1 
C482: x15+x23 <=1 
C483: x15+x26 <=1 
C484: x15+x30 <=1 
C485: x15+x32 <=1 
C486: x15+x34-y15_34 <=1 
C487: x15+x35 <=1 
C488: x15+x37 <=1 
C489: x15+x40-y15_40 <=1 
C490: x15+x41 <=1 
C491: x15+x45-y15_45 <=1 
C492: x15+x49-y15_49 <=1 
C493: x15+x50-y15_50 <=1 
C494: x15+x51-y15_51 <=1 
C495: x15+x52-y15_52 <=1 
C496: x15+x54 <=1 
C497: x15+x58 <=1 
C498: x15+x59-y15_59 <=1 
C499: x16+x20 <=1 
C500: x16+x21-y16_21 <=1 
C501: x16+x22-y16_22 <=1 
C502: x16+x23 <=1 
C503: x16+x24 <=1 
C504: x16+x28 <=1 
C505: x16+x29 <=1 
C506: x16+x30-y16_30 <=1 
C507: x16+x37-y16_37 <=1 
C508: x16+x40-y16_40 <=1 
C509: x16+x41-y16_41 <=1 
C510: x16+x42 <=1 
C511: x16+x43-y16_43 <=1 
C512: x16+x46 <=1 
C513: x16+x47-y16_47 <=1 
C514: x16+x50-y16_50 <=1 
C515: x16+x51-y16_51 <=1 
C516: x16+x53-y16_53 <=1 
C517: x16+x54-y16_54 <=1 
C518: x17+x18 <=1 
C519: x17+x19 <=1 
C520: x17+x20-y17_20 <=1 
C521: x17+x21-y17_21 <=1 
C522: x17+x22-y17_22 <=1 
C523: x17+x23 <=1 
C524: x17+x24 <=1 
C525: x17+x26 <=1 
C526: x17+x31 <=1 
C527: x17+x32-y17_32 <=1 
C528: x17+x33-y17_33 <=1 
C529: x17+x34 <=1 
C530: x17+x35 <=1 
C531: x17+x36 <=1 
C532: x17+x37 <=1 
C533: x17+x39 <=1 
C534: x17+x40-y17_40 <=1 
C535: x17+x43 <=1 
C536: x17+x45-y17_45 <=1 
C537: x17+x47 <=1 
C538: x17+x49 <=1 
C539: x17+x50-y17_50 <=1 
C540: x17+x51-y17_51 <=1 
C541: x17+x55-y17_55 <=1 
C542: x17+x58-y17_58 <=1 
C543: x17+x59 <=1 
C544: x17+x60-y17_60 <=1 
C545: x18+x19 <=1 
C546: x18+x20 <=1 
C547: x18+x22 <=1 
C548: x18+x23 <=1 
C549: x18+x26 <=1 
C550: x18+x27 <=1 
C551: x18+x29 <=1 
C552: x18+x32 <=1 
C553: x18+x33 <=1 
C554: x18+x34-y18_34 <=1 
C555: x18+x36-y18_36 <=1 
C556: x18+x39 <=1 
C557: x18+x43 <=1 
C558: x18+x47-y18_47 <=1 
C559: x18+x48-y18_48 <=1 
C560: x18+x50 <=1 
C561: x18+x51-y18_51 <=1 
C562: x18+x52 <=1 
C563: x18+x53 <=1 
C564: x18+x57-y18_57 <=1 
C565: x18+x59-y18_59 <=1 
C566: x19+x20-y19_20 <=1 
C567: x19+x21-y19_21 <=1 
C568: x19+x22-y19_22 <=1 
C569: x19+x24-y19_24 <=1 
C570: x19+x26-y19_26 <=1 
C571: x19+x28-y19_28 <=1 
C572: x19+x29-y19_29 <=1 
C573: x19+x31 <=1 
C574: x19+x33-y19_33 <=1 
C575: x19+x34 <=1 
C576: x19+x35 <=1 
C577: x19+x36-y19_36 <=1 
C578: x19+x39-y19_39 <=1 
C579: x19+x41 <=1 
C580: x19+x47 <=1 
C581: x19+x49-y19_49 <=1 
C582: x19+x51-y19_51 <=1 
C583: x19+x53-y19_53 <=1 
C584: x19+x54 <=1 
C585: x19+x58-y19_58 <=1 
C586: x19+x59 <=1 
C587: x19+x60 <=1 
C588: x20+x22-y20_22 <=1 
C589: x20+x24-y20_24 <=1 
C590: x20+x25-y20_25 <=1 
C591: x20+x26-y20_26 <=1 
C592: x20+x30-y20_30 <=1 
C593: x20+x31-y20_31 <=1 
C594: x20+x32 <=1 
C595: x20+x34 <=1 
C596: x20+x35 <=1 
C597: x20+x38 <=1 
C598: x20+x39 <=1 
C599: x20+x41-y20_41 <=1 
C600: x20+x43 <=1 
C601: x20+x44-y20_44 <=1 
C602: x20+x45-y20_45 <=1 
C603: x20+x46 <=1 
C604: x20+x47 <=1 
C605: x20+x50 <=1 
C606: x20+x53 <=1 
C607: x20+x54 <=1 
C608: x20+x55-y20_55 <=1 
C609: x20+x56-y20_56 <=1 
C610: x20+x57-y20_57 <=1 
C611: x21+x25-y21_25 <=1 
C612: x21+x26 <=1 
C613: x21+x27 <=1 
C614: x21+x28-y21_28 <=1 
C615: x21+x29-y21_29 <=1 
C616: x21+x30-y21_30 <=1 
C617: x21+x31-y21_31 <=1 
C618: x21+x32-y21_32 <=1 
C619: x21+x36-y21_36 <=1 
C620: x21+x37-y21_37 <=1 
C621: x21+x38-y21_38 <=1 
C622: x21+x39-y21_39 <=1 
C623: x21+x41 <=1 
C624: x21+x42 <=1 
C625: x21+x43 <=1 
C626: x21+x44 <=1 
C627: x21+x45 <=1 
C628: x21+x47-y21_47 <=1 
C629: x21+x48 <=1 
C630: x21+x49 <=1 
C631: x21+x51 <=1 
C632: x21+x52 <=1 
C633: x21+x55-y21_55 <=1 
C634: x21+x56 <=1 
C635: x21+x57-y21_57 <=1 
C636: x21+x58 <=1 
C637: x21+x60-y21_60 <=1 
C638: x22+x25-y22_25 <=1 
C639: x22+x26-y22_26 <=1 
C640: x22+x27-y22_27 <=1 
C641: x22+x28 <=1 
C642: x22+x31 <=1 
C643: x22+x32 <=1 
C644: x22+x33-y22_33 <=1 
C645: x22+x36 <=1 
C646: x22+x38 <=1 
C647: x22+x44-y22_44 <=1 
C648: x22+x48-y22_48 <=1 
C649: x22+x51 <=1 
C650: x22+x52 <=1 
C651: x22+x53 <=1 
C652: x22+x57 <=1 
C653: x22+x58-y22_58 <=1 
C654: x22+x59-y22_59 <=1 
C655: x23+x24-y23_24 <=1 
C656: x23+x25 <=1 
C657: x23+x26-y23_26 <=1 
C658: x23+x27-y23_27 <=1 
C659: x23+x28-y23_28 <=1 
C660: x23+x29 <=1 
C661: x23+x32 <=1 
C662: x23+x35-y23_35 <=1 
C663: x23+x36 <=1 
C664: x23+x37-y23_37 <=1 
C665: x23+x39-y23_39 <=1 
C666: x23+x40-y23_40 <=1 
C667: x23+x43-y23_43 <=1 
C668: x23+x44-y23_44 <=1 
C669: x23+x48-y23_48 <=1 
C670: x23+x49 <=1 
C671: x23+x52-y23_52 <=1 
C672: x23+x54-y23_54 <=1 
C673: x23+x58-y23_58 <=1 
C674: x23+x59-y23_59 <=1 
C675: x23+x60-y23_60 <=1 
C676: x24+x25 <=1 
C677: x24+x26-y24_26 <=1 
C678: x24+x28 <=1 
C679: x24+x29 <=1 
C680: x24+x32-y24_32 <=1 
C681: x24+x38 <=1 
C682: x24+x39 <=1 
C683: x24+x41 <=1 
C684: x24+x43-y24_43 <=1 
C685: x24+x44-y24_44 <=1 
C686: x24+x45 <=1 
C687: x24+x46-y24_46 <=1 
C688: x24+x48 <=1 
C689: x24+x49 <=1 
C690: x24+x55-y24_55 <=1 
C691: x24+x56 <=1 
C692: x24+x57 <=1 
C693: x24+x58-y24_58 <=1 
C694: x24+x59 <=1 
C695: x25+x26-y25_26 <=1 
C696: x25+x27-y25_27 <=1 
C697: x25+x30 <=1 
C698: x25+x31-y25_31 <=1 
C699: x25+x33-y25_33 <=1 
C700: x25+x34 <=1 
C701: x25+x36 <=1 
C702: x25+x37-y25_37 <=1 
C703: x25+x39 <=1 
C704: x25+x40 <=1 
C705: x25+x41-y25_41 <=1 
C706: x25+x42 <=1 
C707: x25+x43-y25_43 <=1 
C708: x25+x44-y25_44 <=1 
C709: x25+x45 <=1 
C710: x25+x47 <=1 
C711: x25+x48 <=1 
C712: x25+x49-y25_49 <=1 
C713: x25+x50 <=1 
C714: x25+x54-y25_54 <=1 
C715: x25+x55-y25_55 <=1 
C716: x25+x57 <=1 
C717: x25+x58-y25_58 <=1 
C718: x25+x59 <=1 
C719: x26+x27 <=1 
C720: x26+x28-y26_28 <=1 
C721: x26+x29-y26_29 <=1 
C722: x26+x35-y26_35 <=1 
C723: x26+x36-y26_36 <=1 
C724: x26+x40 <=1 
C725: x26+x41-y26_41 <=1 
C726: x26+x42-y26_42 <=1 
C727: x26+x43-y26_43 <=1 
C728: x26+x44-y26_44 <=1 
C729: x26+x45-y26_45 <=1 
C730: x26+x46 <=1 
C731: x26+x49 <=1 
C732: x26+x50-y26_50 <=1 
C733: x26+x51 <=1 
C734: x26+x52 <=1 
C735: x26+x53 <=1 
C736: x26+x54-y26_54 <=1 
C737: x26+x56-y26_56 <=1 
C738: x26+x57 <=1 
C739: x27+x29-y27_29 <=1 
C740: x27+x30 <=1 
C741: x27+x31 <=1 
C742: x27+x32-y27_32 <=1 
C743: x27+x38 <=1 
C744: x27+x40-y27_40 <=1 
C745: x27+x41-y27_41 <=1 
C746: x27+x42 <=1 
C747: x27+x43 <=1 
C748: x27+x48 <=1 
C749: x27+x49-y27_49 <=1 
C750: x27+x51 <=1 
C751: x27+x52-y27_52 <=1 
C752: x27+x55-y27_55 <=1 
C753: x27+x56-y27_56 <=1 
C754: x27+x57-y27_57 <=1 
C755: x27+x58 <=1 
C756: x27+x60-y27_60 <=1 
C757: x28+x30 <=1 
C758: x28+x34 <=1 
C759: x28+x35-y28_35 <=1 
C760: x28+x36-y28_36 <=1 
C761: x28+x40-y28_40 <=1 
C762: x28+x42-y28_42 <=1 
C763: x28+x44-y28_44 <=1 
C764: x28+x45 <=1 
C765: x28+x48 <=1 
C766: x28+x49-y28_49 <=1 
C767: x28+x50-y28_50 <=1 
C768: x28+x51 <=1 
C769: x28+x54 <=1 
C770: x28+x55-y28_55 <=1 
C771: x28+x59-y28_59 <=1 
C772: x28+x60-y28_60 <=1 
C773: x29+x33-y29_33 <=1 
C774: x29+x35-y29_35 <=1 
C775: x29+x37 <=1 
C776: x29+x38-y29_38 <=1 
C777: x29+x39-y29_39 <=1 
C778: x29+x40 <=1 
C779: x29+x41 <=1 
C780: x29+x44 <=1 
C781: x29+x45-y29_45 <=1 
C782: x29+x47 <=1 
C783: x29+x49 <=1 
C784: x29+x50 <=1 
C785: x29+x51-y29_51 <=1 
C786: x29+x54 <=1 
C787: x29+x55-y29_55 <=1 
C788: x29+x58-y29_58 <=1 
C789: x29+x59-y29_59 <=1 
C790: x30+x31-y30_31 <=1 
C791: x30+x33 <=1 
C792: x30+x36 <=1 
C793: x30+x37 <=1 
C794: x30+x39-y30_39 <=1 
C795: x30+x40 <=1 
C796: x30+x41-y30_41 <=1 
C797: x30+x43 <=1 
C798: x30+x44 <=1 
C799: x30+x47-y30_47 <=1 
C800: x30+x48-y30_48 <=1 
C801: x30+x49 <=1 
C802: x30+x50 <=1 
C803: x30+x52-y30_52 <=1 
C804: x30+x54-y30_54 <=1 
C805: x30+x55-y30_55 <=1 
C806: x30+x56-y30_56 <=1 
C807: x30+x58 <=1 
C808: x31+x32-y31_32 <=1 
C809: x31+x33-y31_33 <=1 
C810: x31+x35-y31_35 <=1 
C811: x31+x37-y31_37 <=1 
C812: x31+x38 <=1 
C813: x31+x39-y31_39 <=1 
C814: x31+x40 <=1 
C815: x31+x43 <=1 
C816: x31+x44 <=1 
C817: x31+x45-y31_45 <=1 
C818: x31+x46 <=1 
C819: x31+x47-y31_47 <=1 
C820: x31+x48-y31_48 <=1 
C821: x31+x49-y31_49 <=1 
C822: x31+x50 <=1 
C823: x31+x51 <=1 
C824: x31+x54 <=1 
C825: x31+x55 <=1 
C826: x31+x56-y31_56 <=1 
C827: x31+x57 <=1 
C828: x31+x59-y31_59 <=1 
C829: x31+x60-y31_60 <=1 
C830: x32+x33 <=1 
C831: x32+x34 <=1 
C832: x32+x39-y32_39 <=1 
C833: x32+x40-y32_40 <=1 
C834: x32+x42-y32_42 <=1 
C835: x32+x43-y32_43 <=1 
C836: x32+x46-y32_46 <=1 
C837: x32+x48-y32_48 <=1 
C838: x32+x49 <=1 
C839: x32+x52-y32_52 <=1 
C840: x32+x53-y32_53 <=1 
C841: x32+x54 <=1 
C842: x32+x55-y32_55 <=1 
C843: x32+x57 <=1 
C844: x32+x58-y32_58 <=1 
C845: x32+x60 <=1 
C846: x33+x34-y33_34 <=1 
C847: x33+x37 <=1 
C848: x33+x38-y33_38 <=1 
C849: x33+x39 <=1 
C850: x33+x41-y33_41 <=1 
C851: x33+x42 <=1 
C852: x33+x45 <=1 
C853: x33+x46 <=1 
C854: x33+x47-y33_47 <=1 
C855: x33+x48 <=1 
C856: x33+x49-y33_49 <=1 
C857: x33+x50-y33_50 <=1 
C858: x33+x51 <=1 
C859: x33+x52 <=1 
C860: x33+x53-y33_53 <=1 
C861: x33+x55 <=1 
C862: x33+x56-y33_56 <=1 
C863: x33+x57 <=1 
C864: x33+x58 <=1 
C865: x34+x36 <=1 
C866: x34+x37-y34_37 <=1 
C867: x34+x39 <=1 
C868: x34+x43-y34_43 <=1 
C869: x34+x44 <=1 
C870: x34+x45 <=1 
C871: x34+x46 <=1 
C872: x34+x48 <=1 
C873: x34+x49 <=1 
C874: x34+x51-y34_51 <=1 
C875: x34+x53 <=1 
C876: x34+x54-y34_54 <=1 
C877: x34+x55-y34_55 <=1 
C878: x34+x56 <=1 
C879: x35+x36 <=1 
C880: x35+x37-y35_37 <=1 
C881: x35+x38 <=1 
C882: x35+x40 <=1 
C883: x35+x41 <=1 
C884: x35+x42 <=1 
C885: x35+x43 <=1 
C886: x35+x44-y35_44 <=1 
C887: x35+x45 <=1 
C888: x35+x46 <=1 
C889: x35+x47-y35_47 <=1 
C890: x35+x50 <=1 
C891: x35+x52-y35_52 <=1 
C892: x35+x53-y35_53 <=1 
C893: x35+x57 <=1 
C894: x35+x59-y35_59 <=1 
C895: x35+x60-y35_60 <=1 
C896: x36+x39-y36_39 <=1 
C897: x36+x41-y36_41 <=1 
C898: x36+x43 <=1 
C899: x36+x45 <=1 
C900: x36+x46 <=1 
C901: x36+x49-y36_49 <=1 
C902: x36+x50-y36_50 <=1 
C903: x36+x53 <=1 
C904: x36+x54-y36_54 <=1 
C905: x36+x55 <=1 
C906: x36+x56-y36_56 <=1 
C907: x36+x59-y36_59 <=1 
C908: x36+x60 <=1 
C909: x37+x38-y37_38 <=1 
C910: x37+x39-y37_39 <=1 
C911: x37+x40 <=1 
C912: x37+x42-y37_42 <=1 
C913: x37+x43 <=1 
C914: x37+x44 <=1 
C915: x37+x47-y37_47 <=1 
C916: x37+x48 <=1 
C917: x37+x49 <=1 
C918: x37+x50 <=1 
C919: x37+x53-y37_53 <=1 
C920: x37+x55 <=1 
C921: x37+x56-y37_56 <=1 
C922: x37+x57-y37_57 <=1 
C923: x37+x58 <=1 
C924: x38+x39 <=1 
C925: x38+x41 <=1 
C926: x38+x42-y38_42 <=1 
C927: x38+x46 <=1 
C928: x38+x48-y38_48 <=1 
C929: x38+x49-y38_49 <=1 
C930: x38+x50 <=1 
C931: x38+x51 <=1 
C932: x38+x52-y38_52 <=1 
C933: x38+x53-y38_53 <=1 
C934: x38+x54 <=1 
C935: x38+x56 <=1 
C936: x38+x57 <=1 
C937: x38+x58-y38_58 <=1 
C938: x38+x59-y38_59 <=1 
C939: x39+x44 <=1 
C940: x39+x45 <=1 
C941: x39+x47-y39_47 <=1 
C942: x39+x48 <=1 
C943: x39+x49-y39_49 <=1 
C944: x39+x50 <=1 
C945: x39+x51-y39_51 <=1 
C946: x39+x52 <=1 
C947: x39+x54 <=1 
C948: x39+x56-y39_56 <=1 
C949: x39+x57-y39_57 <=1 
C950: x39+x58-y39_58 <=1 
C951: x39+x59 <=1 
C952: x40+x41-y40_41 <=1 
C953: x40+x42 <=1 
C954: x40+x43-y40_43 <=1 
C955: x40+x44-y40_44 <=1 
C956: x40+x46 <=1 
C957: x40+x47 <=1 
C958: x40+x48-y40_48 <=1 
C959: x40+x49 <=1 
C960: x40+x50-y40_50 <=1 
C961: x40+x51-y40_51 <=1 
C962: x40+x53 <=1 
C963: x40+x56-y40_56 <=1 
C964: x41+x42 <=1 
C965: x41+x43 <=1 
C966: x41+x44 <=1 
C967: x41+x45-y41_45 <=1 
C968: x41+x46 <=1 
C969: x41+x47-y41_47 <=1 
C970: x41+x50-y41_50 <=1 
C971: x41+x52-y41_52 <=1 
C972: x41+x54 <=1 
C973: x41+x56-y41_56 <=1 
C974: x41+x58-y41_58 <=1 
C975: x41+x60 <=1 
C976: x42+x43-y42_43 <=1 
C977: x42+x44-y42_44 <=1 
C978: x42+x47 <=1 
C979: x42+x50-y42_50 <=1 
C980: x42+x51-y42_51 <=1 
C981: x42+x55-y42_55 <=1 
C982: x42+x56-y42_56 <=1 
C983: x42+x59 <=1 
C984: x42+x60-y42_60 <=1 
C985: x43+x46-y43_46 <=1 
C986: x43+x49 <=1 
C987: x43+x50 <=1 
C988: x43+x52-y43_52 <=1 
C989: x43+x54 <=1 
C990: x43+x55-y43_55 <=1 
C991: x43+x56-y43_56 <=1 
C992: x43+x57-y43_57 <=1 
C993: x43+x58-y43_58 <=1 
C994: x43+x59-y43_59 <=1 
C995: x43+x60 <=1 
C996: x44+x46-y44_46 <=1 
C997: x44+x53 <=1 
C998: x44+x54 <=1 
C999: x44+x55-y44_55 <=1 
C1000: x44+x56-y44_56 <=1 
C1001: x44+x57 <=1 
C1002: x44+x58-y44_58 <=1 
C1003: x44+x60 <=1 
C1004: x45+x46 <=1 
C1005: x45+x47-y45_47 <=1 
C1006: x45+x50 <=1 
C1007: x45+x51-y45_51 <=1 
C1008: x45+x53 <=1 
C1009: x45+x54 <=1 
C1010: x45+x59 <=1 
C1011: x45+x60-y45_60 <=1 
C1012: x46+x48 <=1 
C1013: x46+x49-y46_49 <=1 
C1014: x46+x50 <=1 
C1015: x46+x51 <=1 
C1016: x46+x52 <=1 
C1017: x46+x54-y46_54 <=1 
C1018: x46+x55 <=1 
C1019: x46+x57 <=1 
C1020: x46+x58-y46_58 <=1 
C1021: x46+x60 <=1 
C1022: x47+x48-y47_48 <=1 
C1023: x47+x50-y47_50 <=1 
C1024: x47+x51-y47_51 <=1 
C1025: x47+x52 <=1 
C1026: x47+x54 <=1 
C1027: x47+x55-y47_55 <=1 
C1028: x47+x56-y47_56 <=1 
C1029: x47+x57-y47_57 <=1 
C1030: x47+x58-y47_58 <=1 
C1031: x47+x59-y47_59 <=1 
C1032: x47+x60-y47_60 <=1 
C1033: x48+x49 <=1 
C1034: x48+x51-y48_51 <=1 
C1035: x48+x52 <=1 
C1036: x48+x53-y48_53 <=1 
C1037: x48+x55 <=1 
C1038: x48+x56 <=1 
C1039: x48+x58 <=1 
C1040: x48+x59-y48_59 <=1 
C1041: x48+x60 <=1 
C1042: x49+x52 <=1 
C1043: x49+x54 <=1 
C1044: x49+x58 <=1 
C1045: x49+x60-y49_60 <=1 
C1046: x50+x52 <=1 
C1047: x50+x55 <=1 
C1048: x50+x56-y50_56 <=1 
C1049: x50+x57 <=1 
C1050: x50+x58 <=1 
C1051: x51+x52 <=1 
C1052: x51+x54 <=1 
C1053: x51+x55 <=1 
C1054: x51+x57-y51_57 <=1 
C1055: x51+x58-y51_58 <=1 
C1056: x51+x59 <=1 
C1057: x51+x60-y51_60 <=1 
C1058: x52+x53 <=1 
C1059: x52+x55-y52_55 <=1 
C1060: x52+x57-y52_57 <=1 
C1061: x52+x59-y52_59 <=1 
C1062: x52+x60-y52_60 <=1 
C1063: x53+x54 <=1 
C1064: x53+x56 <=1 
C1065: x53+x58-y53_58 <=1 
C1066: x53+x59 <=1 
C1067: x54+x55 <=1 
C1068: x54+x56-y54_56 <=1 
C1069: x54+x57 <=1 
C1070: x54+x58-y54_58 <=1 
C1071: x54+x59 <=1 
C1072: x54+x60 <=1 
C1073: x55+x57-y55_57 <=1 
C1074: x56+x59 <=1 
C1075: x57+x60 <=1 
C1076: x58+x59-y58_59 <=1 
C1077: x59+x60 <=1 

binary
x0
x1
x2
x3
x4
x5
x6
x7
x8
x9
x10
x11
x12
x13
x14
x15
x16
x17
x18
x19
x20
x21
x22
x23
x24
x25
x26
x27
x28
x29
x30
x31
x32
x33
x34
x35
x36
x37
x38
x39
x40
x41
x42
x43
x44
x45
x46
x47
x48
x49
x50
x51
x52
x53
x54
x55
x56
x57
x58
x59
x60
