problem_generation/data/GISP/train/er_n=61_m=1077_p=0.60_SET2_setparam=100.00_alpha=0.50_160.sol
objective value:                                 1176
x2                                                  1 	(obj:100)
x16                                                 1 	(obj:100)
x19                                                 1 	(obj:100)
x32                                                 1 	(obj:100)
x40                                                 1 	(obj:100)
x43                                                 1 	(obj:100)
x44                                                 1 	(obj:100)
x45                                                 1 	(obj:100)
x52                                                 1 	(obj:100)
x55                                                 1 	(obj:100)
x56                                                 1 	(obj:100)
x58                                                 1 	(obj:100)
y44_56                                              1 	(obj:-1)
y32_55                                              1 	(obj:-1)
y43_55                                              1 	(obj:-1)
y40_44                                              1 	(obj:-1)
y32_40                                              1 	(obj:-1)
y32_58                                              1 	(obj:-1)
y43_58                                              1 	(obj:-1)
y2_16                                               1 	(obj:-1)
y16_40                                              1 	(obj:-1)
y52_55                                              1 	(obj:-1)
y44_55                                              1 	(obj:-1)
y2_58                                               1 	(obj:-1)
y40_43                                              1 	(obj:-1)
y2_43                                               1 	(obj:-1)
y40_56                                              1 	(obj:-1)
y2_56                                               1 	(obj:-1)
y32_43                                              1 	(obj:-1)
y32_52                                              1 	(obj:-1)
y43_52                                              1 	(obj:-1)
y2_19                                               1 	(obj:-1)
y43_56                                              1 	(obj:-1)
y19_58                                              1 	(obj:-1)
y16_43                                              1 	(obj:-1)
y44_58                                              1 	(obj:-1)
